8882087.29
0 57 56 43 42 48 47 39 40 33 31 36 34 54 45 59 53 0 
0 14 24 73 74 75 18 0 
0 13 93 89 88 94 98 95 91 96 17 0 
0 64 49 32 46 38 37 67 41 28 30 58 68 0 
0 21 4 3 5 2 1 10 8 9 6 100 7 16 0 
0 22 70 72 71 69 61 0 
0 27 81 86 84 87 82 85 83 50 60 29 44 35 63 62 52 0 
0 11 97 90 92 23 15 0 
0 19 51 77 78 79 76 80 55 0 
0 12 26 99 20 0 
0 65 66 25 0 
